0 0 0 0
0 1 0 0
0 2 0 0
0 3 0 0
0 4 0 10
0 5 0 8
0 6 0 12
0 7 0 10
0 8 0 19
0 9 0 33
0 10 0 20
0 11 0 12
0 12 0 15
0 13 0 17
0 14 0 20
0 15 0 27
0 16 0 40
0 17 0 45
0 18 0 11
0 19 0 32
0 20 0 36
0 21 0 20
0 22 0 27
0 23 0 15
0 24 0 32
0 25 0 33
0 26 0 8
0 27 0 18
0 28 0 30
0 29 0 50
0 30 0 21
0 31 0 21
0 32 0 25
0 33 0 74
0 34 0 32
0 35 0 32
0 36 0 36
0 37 0 61
0 38 0 28
0 39 0 28
0 40 0 21
0 41 0 12
0 42 0 27
0 43 0 34
0 44 0 30
0 45 0 8
0 46 0 33
0 47 0 45
0 48 0 42
0 49 0 22
0 50 0 30
0 51 0 29
0 52 0 41
0 53 0 28
0 54 0 39
0 55 0 53
0 56 0 73
0 57 0 42
0 58 0 46
0 59 0 30
0 60 0 48
0 61 0 47
0 62 0 34
0 63 0 42
0 64 0 10
0 65 0 67
0 66 0 40
0 67 0 36
0 68 0 84
0 69 0 62
0 70 0 32
0 71 0 27
0 72 0 48
0 73 0 58
0 74 0 52
0 75 0 44
0 76 0 64
0 77 0 50
0 78 0 57
0 79 0 62
0 80 0 62
0 81 0 34
0 82 0 39
0 83 0 58
0 84 0 51
0 85 0 40
0 86 0 66
0 87 0 15
0 88 0 15
0 89 0 61
0 90 0 64
0 91 0 72
0 92 0 61
0 93 0 57
0 94 0 39
0 95 0 80
0 96 0 49
0 97 0 79
0 98 0 56
0 99 0 56
0 100 0 45
0 101 0 73
0 102 0 81
0 103 0 51
0 104 0 69
0 105 0 44
0 106 0 69
0 107 0 67
0 108 0 70
0 109 0 72
0 110 0 74
0 111 0 76
0 112 0 67
0 113 0 84
0 114 0 87
0 115 0 88
0 116 0 88
0 117 0 81
0 118 0 91
0 119 0 94
0 120 0 91
0 121 0 97
